
Gurobi 7.0.2 (linux64) logging started Thu Jun  8 11:32:42 2017

Changed value of parameter logfile to result/NEIS-20170608T1110/scenario_CHP-elec-0.3500.log
   Prev: gurobi.log  Default: 
Optimize a model with 1059933 rows, 937229 columns and 3961670 nonzeros
Coefficient statistics:
  Matrix range     [8e-04, 1e+05]
  Objective range  [1e+00, 1e+00]
  Bounds range     [0e+00, 0e+00]
  RHS range        [3e-03, 1e+05]

Concurrent LP optimizer: primal simplex, dual simplex, and barrier
Showing barrier log only...

Presolve removed 580114 rows and 635954 columns
Presolve time: 3.02s
Presolved: 479819 rows, 301275 columns, 1383529 nonzeros

Ordering time: 0.46s

Barrier statistics:
 Dense cols : 22
 AA' NZ     : 1.918e+06
 Factor NZ  : 6.933e+06 (roughly 400 MBytes of memory)
 Factor Ops : 1.616e+08 (less than 1 second per iteration)
 Threads    : 22

                  Objective                Residual
Iter       Primal          Dual         Primal    Dual     Compl     Time
   0   3.75310555e+11 -2.71673739e+11  8.93e+02 6.72e+03  2.07e+07     5s
   1   2.96965023e+11 -9.57180699e+10  6.51e+02 1.39e+04  6.83e+06     5s
   2   2.90410381e+11 -6.85117107e+10  6.42e+02 8.03e+03  5.99e+06     6s
   3   1.99367080e+11 -7.88182964e+10  4.35e+02 9.80e+02  3.77e+06     6s
   4   1.27359532e+10 -7.91972212e+10  1.47e+01 3.44e+01  2.36e+05     7s
   5   1.75757129e+09 -1.55881223e+10  1.60e+00 1.10e-04  3.00e+04     7s
   6   4.37213211e+08 -3.34781669e+09  2.36e-01 1.73e-05  5.48e+03     8s
   7   2.23564834e+08 -1.85353395e+09  7.34e-02 9.36e-06  2.86e+03     8s
   8   1.55711648e+08 -8.75960807e+08  3.17e-02 4.41e-06  1.40e+03     9s
   9   1.20043810e+08 -1.27986932e+08  1.75e-02 6.72e-07  3.35e+02     9s
  10   1.07714183e+08 -1.11628764e+08  1.35e-02 6.11e-07  2.96e+02    10s
  11   7.32495964e+07 -5.71753507e+07  7.49e-03 3.82e-07  1.76e+02    10s
  12   5.45143464e+07 -4.05682677e+07  4.77e-03 2.96e-07  1.28e+02    11s
  13   4.84068538e+07 -1.87992185e+07  2.51e-03 2.05e-07  9.03e+01    11s
  14   3.93115024e+07 -1.61657984e+07  1.75e-03 1.86e-07  7.45e+01    12s
  15   2.82773006e+07 -3.79422862e+06  9.87e-04 1.13e-07  4.30e+01    12s
  16   2.18532965e+07  5.25434674e+06  5.59e-04 4.99e-08  2.23e+01    13s
  17   1.85392636e+07  8.17371970e+06  3.50e-04 2.87e-08  1.39e+01    14s
  18   1.63994641e+07  9.80515632e+06  2.19e-04 1.73e-08  8.84e+00    14s
  19   1.54895258e+07  1.09319062e+07  1.65e-04 1.02e-08  6.11e+00    14s
  20   1.49954725e+07  1.17063165e+07  1.36e-04 5.22e-09  4.41e+00    15s
  21   1.42848339e+07  1.20231799e+07  9.37e-05 2.50e-09  3.03e+00    15s
  22   1.35915528e+07  1.21664921e+07  5.57e-05 2.32e-09  1.91e+00    16s
  23   1.34053767e+07  1.22372612e+07  4.51e-05 1.30e-09  1.57e+00    16s
  24   1.31935112e+07  1.23845353e+07  3.34e-05 9.53e-10  1.08e+00    17s
  25   1.30662632e+07  1.24543206e+07  2.72e-05 5.89e-10  8.20e-01    18s
  26   1.30099460e+07  1.24780273e+07  2.40e-05 5.97e-10  7.13e-01    18s
  27   1.29574591e+07  1.24975917e+07  2.10e-05 4.00e-10  6.17e-01    19s
  28   1.29144636e+07  1.25030868e+07  1.85e-05 7.86e-10  5.52e-01    19s
  29   1.28791720e+07  1.25084584e+07  1.65e-05 4.66e-10  4.97e-01    19s
  30   1.28344400e+07  1.25196863e+07  1.40e-05 5.68e-10  4.22e-01    20s
  31   1.28094476e+07  1.25269378e+07  1.26e-05 4.29e-10  3.79e-01    20s
  32   1.28024879e+07  1.25291281e+07  1.22e-05 4.37e-10  3.67e-01    21s
  33   1.27843555e+07  1.25308599e+07  1.11e-05 8.73e-10  3.40e-01    22s
  34   1.27696655e+07  1.25346645e+07  1.04e-05 4.15e-10  3.15e-01    22s
  35   1.27672610e+07  1.25360770e+07  1.02e-05 5.46e-10  3.10e-01    23s
  36   1.27648871e+07  1.25373335e+07  1.01e-05 4.37e-10  3.05e-01    23s
  37   1.27611097e+07  1.25389023e+07  9.84e-06 4.29e-10  2.98e-01    24s
  38   1.27358295e+07  1.25498682e+07  8.41e-06 4.15e-10  2.49e-01    24s
  39   1.27240437e+07  1.25528507e+07  7.69e-06 6.77e-10  2.30e-01    25s
  40   1.26984764e+07  1.25678237e+07  6.19e-06 1.75e-09  1.75e-01    25s
  41   1.26718224e+07  1.25740074e+07  4.62e-06 4.80e-10  1.31e-01    26s
  42   1.26604565e+07  1.25783419e+07  4.00e-06 5.97e-10  1.10e-01    27s
  43   1.26563252e+07  1.25790882e+07  3.75e-06 6.69e-10  1.04e-01    27s
  44   1.26545359e+07  1.25809496e+07  3.64e-06 7.64e-10  9.87e-02    28s
  45   1.26526231e+07  1.25814158e+07  3.53e-06 5.97e-10  9.55e-02    28s
  46   1.26419501e+07  1.25833986e+07  2.91e-06 3.54e-09  7.85e-02    29s
  47   1.26380983e+07  1.25840105e+07  2.67e-06 3.86e-09  7.25e-02    29s
  48   1.26320309e+07  1.25870270e+07  2.33e-06 4.48e-09  6.03e-02    29s
  49   1.26241519e+07  1.25878506e+07  1.88e-06 3.22e-09  4.87e-02    30s
  50   1.26185003e+07  1.25897084e+07  1.54e-06 3.36e-09  3.86e-02    31s
  51   1.26172011e+07  1.25902144e+07  1.46e-06 2.85e-09  3.62e-02    31s
  52   1.26138482e+07  1.25904782e+07  1.25e-06 2.08e-09  3.13e-02    32s
  53   1.26121395e+07  1.25906469e+07  1.15e-06 2.33e-09  2.88e-02    32s
  54   1.26073519e+07  1.25908948e+07  8.65e-07 3.03e-09  2.21e-02    32s
  55   1.26058463e+07  1.25910776e+07  7.68e-07 2.89e-09  1.98e-02    33s
  56   1.26047555e+07  1.25917984e+07  7.05e-07 2.23e-09  1.74e-02    33s
  57   1.26015842e+07  1.25920638e+07  5.21e-07 2.82e-09  1.28e-02    34s
  58   1.26006103e+07  1.25923591e+07  4.58e-07 2.95e-09  1.11e-02    35s
  59   1.26003733e+07  1.25924478e+07  4.43e-07 3.14e-09  1.06e-02    35s
  60   1.25996970e+07  1.25924740e+07  4.01e-07 2.77e-09  9.68e-03    36s
  61   1.25994348e+07  1.25925044e+07  3.84e-07 3.03e-09  9.29e-03    36s
  62   1.25983465e+07  1.25926450e+07  3.15e-07 3.27e-09  7.64e-03    36s
  63   1.25980447e+07  1.25926662e+07  2.96e-07 3.14e-09  7.21e-03    37s
  64   1.25977620e+07  1.25927360e+07  2.80e-07 2.97e-09  6.74e-03    37s
  65   1.25975143e+07  1.25927818e+07  2.64e-07 3.29e-09  6.35e-03    38s
  66   1.25969788e+07  1.25928927e+07  2.30e-07 3.51e-09  5.48e-03    39s
  67   1.25967459e+07  1.25929202e+07  2.15e-07 3.67e-09  5.13e-03    39s
  68   1.25965933e+07  1.25929810e+07  2.05e-07 3.45e-09  4.84e-03    39s
  69   1.25961518e+07  1.25930070e+07  1.77e-07 3.35e-09  4.22e-03    40s
  70   1.25956044e+07  1.25930360e+07  1.45e-07 3.27e-09  3.44e-03    40s
  71   1.25954515e+07  1.25930465e+07  1.35e-07 3.06e-09  3.22e-03    41s
  72   1.25952790e+07  1.25930623e+07  1.25e-07 2.78e-09  2.97e-03    41s
  73   1.25948015e+07  1.25930999e+07  9.63e-08 4.79e-09  2.28e-03    42s
  74   1.25945389e+07  1.25931480e+07  7.99e-08 4.39e-09  1.86e-03    43s
  75   1.25944157e+07  1.25931561e+07  7.21e-08 3.74e-09  1.69e-03    43s
  76   1.25941882e+07  1.25931910e+07  5.72e-08 4.45e-09  1.34e-03    43s
  77   1.25941318e+07  1.25932020e+07  5.36e-08 4.30e-09  1.25e-03    44s
  78   1.25939863e+07  1.25932233e+07  4.48e-08 5.39e-09  1.02e-03    45s
  79   1.25937728e+07  1.25932323e+07  3.14e-08 5.41e-09  7.25e-04    45s
  80   1.25936364e+07  1.25932511e+07  2.35e-08 4.30e-09  5.17e-04    46s
  81   1.25935467e+07  1.25932557e+07  2.27e-08 2.93e-09  3.90e-04    47s
  82   1.25935080e+07  1.25932562e+07  8.59e-07 3.30e-09  3.38e-04    48s
  83   1.25934088e+07  1.25932607e+07  1.52e-06 1.65e-08  1.98e-04    49s
  84   1.25933661e+07  1.25932635e+07  4.01e-06 1.45e-08  1.37e-04    49s
  85   1.25933576e+07  1.25932645e+07  3.65e-06 2.09e-08  1.25e-04    50s
  86   1.25933441e+07  1.25932659e+07  3.09e-06 2.13e-08  1.05e-04    50s
  87   1.25933440e+07  1.25932659e+07  4.22e-06 2.22e-08  1.05e-04    51s
  88   1.25933438e+07  1.25932660e+07  4.21e-06 2.19e-08  1.04e-04    52s
  89   1.25933166e+07  1.25932659e+07  6.48e-06 2.01e-08  6.79e-05    53s
  90   1.25933166e+07  1.25932659e+07  6.48e-06 1.60e-10  6.79e-05    54s
  91   1.25933166e+07  1.25932659e+07  6.48e-06 4.07e-10  6.79e-05    55s
  92   1.25933166e+07  1.25932660e+07  6.48e-06 5.09e-10  6.79e-05    56s
  93   1.25933166e+07  1.25932660e+07  6.47e-06 7.42e-10  6.79e-05    57s
  94   1.25933166e+07  1.25932660e+07  6.47e-06 1.75e-10  6.78e-05    58s
  95   6.66177371e+11 -2.71673739e+11  2.36e+03 6.72e+03  5.40e+07    59s
  96   4.99994853e+11 -3.83952763e+11  1.58e+03 4.96e+03  1.88e+07    61s
  97   8.60460710e+10 -2.48816334e+11  3.03e+01 2.19e+01  7.35e+05    62s
  98   8.65480008e+09 -6.31528397e+10  1.48e+00 3.26e-03  1.06e+05    63s
  99   5.27764224e+08 -4.96341162e+09  4.74e-02 2.95e-04  7.45e+03    64s
 100   1.47593975e+08 -2.01909897e+08  1.69e-03 1.12e-05  4.69e+02    65s
 101   1.19453547e+08 -4.46562942e+07  1.16e-03 2.80e-06  2.20e+02    66s
 102   6.58840878e+07 -3.27551220e+07  3.17e-04 2.43e-06  1.32e+02    67s
 103   4.89394345e+07 -1.64139831e+07  1.87e-04 1.71e-06  8.76e+01    67s
 104   3.55796110e+07 -3.83453053e+06  8.89e-05 1.13e-06  5.28e+01    68s
 105   2.68345304e+07 -4.12658113e+06  5.18e-05 1.02e-06  4.15e+01    68s
 106   2.40818907e+07  5.46143869e+06  4.12e-05 5.12e-07  2.50e+01    68s
 107   2.02928404e+07  7.58177696e+06  2.70e-05 3.56e-07  1.70e+01    69s
 108   1.71665823e+07  9.08903140e+06  1.55e-05 2.41e-07  1.08e+01    69s
 109   1.60911733e+07  9.67328459e+06  1.18e-05 1.97e-07  8.60e+00    70s
 110   1.57949681e+07  1.02693673e+07  1.07e-05 1.57e-07  7.41e+00    70s
 111   1.54488406e+07  1.07179625e+07  9.53e-06 1.25e-07  6.34e+00    71s
 112   1.47549224e+07  1.10498872e+07  6.98e-06 1.03e-07  4.97e+00    71s
 113   1.41532488e+07  1.13970557e+07  4.97e-06 7.89e-08  3.69e+00    71s
 114   1.37733479e+07  1.15846665e+07  3.77e-06 6.57e-08  2.93e+00    72s
 115   1.35356963e+07  1.17310185e+07  3.02e-06 5.60e-08  2.42e+00    72s
 116   1.34605001e+07  1.18095081e+07  2.75e-06 5.07e-08  2.21e+00    73s
 117   1.32318021e+07  1.19195542e+07  1.98e-06 4.34e-08  1.76e+00    73s
 118   1.31430798e+07  1.20892400e+07  1.69e-06 3.20e-08  1.41e+00    73s
 119   1.30789856e+07  1.21804821e+07  1.49e-06 2.64e-08  1.20e+00    74s
 120   1.30525765e+07  1.22428972e+07  1.40e-06 2.19e-08  1.09e+00    74s
 121   1.29940804e+07  1.22723549e+07  1.21e-06 2.04e-08  9.67e-01    75s
 122   1.29558114e+07  1.23007026e+07  1.09e-06 1.81e-08  8.78e-01    75s
 123   1.29204310e+07  1.23623796e+07  9.78e-07 1.45e-08  7.48e-01    75s
 124   1.28995222e+07  1.23872830e+07  9.12e-07 1.26e-08  6.87e-01    76s
 125   1.28616090e+07  1.24234730e+07  7.99e-07 1.08e-08  5.87e-01    76s
 126   1.28174855e+07  1.24497811e+07  6.59e-07 9.57e-09  4.93e-01    77s
 127   1.27831863e+07  1.24798842e+07  5.53e-07 6.94e-09  4.07e-01    77s
 128   1.27724638e+07  1.24936776e+07  5.21e-07 6.41e-09  3.74e-01    77s
 129   1.27450561e+07  1.25012345e+07  4.39e-07 5.97e-09  3.27e-01    78s
 130   1.27377241e+07  1.25229464e+07  4.17e-07 4.05e-09  2.88e-01    78s
 131   1.27289322e+07  1.25336815e+07  3.92e-07 4.18e-09  2.62e-01    79s
 132   1.27206122e+07  1.25377263e+07  3.67e-07 3.05e-09  2.45e-01    79s
 133   1.27174213e+07  1.25401068e+07  3.57e-07 3.78e-09  2.38e-01    80s
 134   1.27049702e+07  1.25486976e+07  3.21e-07 2.74e-09  2.09e-01    80s
 135   1.26842175e+07  1.25547625e+07  2.62e-07 2.56e-09  1.74e-01    80s
 136   1.26660254e+07  1.25599947e+07  2.07e-07 1.78e-09  1.42e-01    81s
 137   1.26556648e+07  1.25666843e+07  1.77e-07 2.06e-09  1.19e-01    81s
 138   1.26393862e+07  1.25722998e+07  1.29e-07 1.20e-09  8.99e-02    82s
 139   1.26314508e+07  1.25778826e+07  1.06e-07 3.09e-09  7.18e-02    82s
 140   1.26253320e+07  1.25811989e+07  8.84e-08 2.02e-09  5.92e-02    82s
 141   1.26194639e+07  1.25835891e+07  7.17e-08 1.14e-09  4.81e-02    83s
 142   1.26156613e+07  1.25855498e+07  6.09e-08 1.72e-09  4.04e-02    83s
 143   1.26098655e+07  1.25866804e+07  4.45e-08 2.31e-09  3.11e-02    84s
 144   1.26082488e+07  1.25878985e+07  4.00e-08 3.14e-09  2.73e-02    84s
 145   1.26057609e+07  1.25885376e+07  3.31e-08 2.94e-09  2.31e-02    84s
 146   1.26029738e+07  1.25892934e+07  2.55e-08 2.06e-09  1.83e-02    85s
 147   1.26018291e+07  1.25899554e+07  2.24e-08 1.06e-09  1.59e-02    85s
 148   1.26010172e+07  1.25903814e+07  2.02e-08 1.49e-09  1.43e-02    86s
 149   1.26001849e+07  1.25909446e+07  1.80e-08 9.09e-10  1.24e-02    86s
 150   1.25985856e+07  1.25913193e+07  1.37e-08 7.28e-10  9.74e-03    87s
 151   1.25978407e+07  1.25915897e+07  1.17e-08 1.31e-09  8.38e-03    87s
 152   1.25971151e+07  1.25917506e+07  9.83e-09 1.62e-09  7.19e-03    87s
 153   1.25964344e+07  1.25920219e+07  8.06e-09 2.56e-09  5.91e-03    88s
 154   1.25960945e+07  1.25921862e+07  7.16e-09 2.64e-09  5.24e-03    88s
 155   1.25958996e+07  1.25923444e+07  6.64e-09 3.36e-09  4.77e-03    89s
 156   1.25954984e+07  1.25924732e+07  5.62e-09 2.92e-09  4.05e-03    89s
 157   1.25952708e+07  1.25926142e+07  5.06e-09 2.60e-09  3.56e-03    89s
 158   1.25951639e+07  1.25926590e+07  4.78e-09 2.83e-09  3.36e-03    90s
 159   1.25947015e+07  1.25927303e+07  3.64e-09 2.62e-09  2.64e-03    90s
 160   1.25945805e+07  1.25928232e+07  3.44e-09 2.46e-09  2.36e-03    91s
 161   1.25944344e+07  1.25928422e+07  3.18e-09 2.09e-09  2.13e-03    91s
 162   1.25942302e+07  1.25929096e+07  2.75e-09 1.56e-09  1.77e-03    92s
 163   1.25940980e+07  1.25929313e+07  2.68e-09 1.65e-09  1.56e-03    92s
 164   1.25940223e+07  1.25929651e+07  2.53e-09 1.80e-09  1.42e-03    93s
 165   1.25938883e+07  1.25930239e+07  1.96e-09 1.62e-09  1.16e-03    93s
 166   1.25938330e+07  1.25930572e+07  1.81e-09 3.27e-09  1.04e-03    94s
 167   1.25937768e+07  1.25930681e+07  1.55e-09 4.05e-09  9.50e-04    94s
 168   1.25937184e+07  1.25930757e+07  1.40e-09 4.29e-09  8.61e-04    95s
 169   1.25937007e+07  1.25931177e+07  1.37e-09 5.03e-09  7.81e-04    95s
 170   1.25936159e+07  1.25931234e+07  1.10e-09 4.86e-09  6.60e-04    96s
 171   1.25935929e+07  1.25931389e+07  1.02e-09 4.29e-09  6.08e-04    96s
 172   1.25935064e+07  1.25931639e+07  7.41e-10 3.43e-09  4.59e-04    97s
 173   1.25934773e+07  1.25931981e+07  6.50e-10 2.30e-09  3.74e-04    98s
 174   1.25934156e+07  1.25932059e+07  4.49e-10 2.02e-09  2.81e-04    98s
 175   1.25933827e+07  1.25932197e+07  1.43e-09 1.59e-09  2.18e-04    99s
 176   1.25933664e+07  1.25932337e+07  3.51e-09 1.14e-09  1.78e-04   100s
 177   1.25933299e+07  1.25932428e+07  2.52e-08 8.08e-10  1.17e-04   100s
 178   1.25933231e+07  1.25932563e+07  2.25e-08 3.49e-10  8.95e-05   101s
 179   1.25933060e+07  1.25932570e+07  1.58e-08 2.33e-10  6.57e-05   102s
 180   1.25932875e+07  1.25932621e+07  5.23e-07 2.91e-10  3.40e-05   102s
 181   1.25932871e+07  1.25932626e+07  5.10e-07 3.86e-10  3.28e-05   103s
 182   1.25932865e+07  1.25932627e+07  4.43e-06 2.55e-10  3.19e-05   104s
 183   1.25932854e+07  1.25932631e+07  4.14e-06 2.91e-10  2.99e-05   104s
 184   1.25932838e+07  1.25932634e+07  3.72e-06 1.31e-10  2.73e-05   105s
 185   1.25932838e+07  1.25932634e+07  3.72e-06 2.91e-10  2.73e-05   105s
 186   1.25932837e+07  1.25932634e+07  3.72e-06 6.48e-10  2.73e-05   106s
 187   1.25932837e+07  1.25932634e+07  1.99e-06 2.55e-10  2.73e-05   107s
 188   1.25932816e+07  1.25932643e+07  1.65e-06 2.04e-10  2.31e-05   108s
 189   1.25932816e+07  1.25932643e+07  1.64e-06 2.11e-10  2.31e-05   109s
 190   1.25932814e+07  1.25932644e+07  1.61e-06 3.49e-10  2.27e-05   110s
 191   1.25932814e+07  1.25932644e+07  1.86e-06 1.75e-10  2.27e-05   111s
 192   1.25932814e+07  1.25932644e+07  1.85e-06 2.62e-10  2.27e-05   111s
 193   1.25932814e+07  1.25932644e+07  1.85e-06 6.55e-11  2.27e-05   112s
 194   1.25932813e+07  1.25932644e+07  1.85e-06 4.95e-10  2.27e-05   113s
 195   1.25932813e+07  1.25932645e+07  1.85e-06 8.00e-11  2.26e-05   114s
 196   1.25932813e+07  1.25932645e+07  1.85e-06 8.15e-10  2.26e-05   115s
 197   1.25932813e+07  1.25932645e+07  2.04e-06 1.89e-10  2.26e-05   116s
 198   1.25932813e+07  1.25932645e+07  3.20e-06 3.35e-10  2.26e-05   117s

Barrier performed 198 iterations in 116.72 seconds
Sub-optimal termination - objective 1.25932875e+07

Crossover log...

  214420 DPushes remaining with DInf 0.0000000e+00               117s
   76036 DPushes remaining with DInf 0.0000000e+00               120s
   74231 DPushes remaining with DInf 0.0000000e+00               126s
   73148 DPushes remaining with DInf 0.0000000e+00               131s
   71703 DPushes remaining with DInf 0.0000000e+00               137s
   70620 DPushes remaining with DInf 0.0000000e+00               141s
   69537 DPushes remaining with DInf 0.0000000e+00               146s
   68454 DPushes remaining with DInf 0.0000000e+00               150s
   67010 DPushes remaining with DInf 0.0000000e+00               156s
   65927 DPushes remaining with DInf 0.0000000e+00               161s
   64844 DPushes remaining with DInf 0.0000000e+00               165s
   63400 DPushes remaining with DInf 0.0000000e+00               171s
   62317 DPushes remaining with DInf 0.0000000e+00               176s
   60511 DPushes remaining with DInf 0.0000000e+00               180s
   56179 DPushes remaining with DInf 0.0000000e+00               185s
   49687 DPushes remaining with DInf 0.0000000e+00               190s
   42724 DPushes remaining with DInf 0.0000000e+00               195s
   37269 DPushes remaining with DInf 0.0000000e+00               200s
   32647 DPushes remaining with DInf 0.0000000e+00               205s
   26704 DPushes remaining with DInf 0.0000000e+00               210s
   21626 DPushes remaining with DInf 0.0000000e+00               215s
   16571 DPushes remaining with DInf 0.0000000e+00               220s
   13118 DPushes remaining with DInf 0.0000000e+00               226s
    4646 DPushes remaining with DInf 0.0000000e+00               230s
       0 DPushes remaining with DInf 2.3684156e-09               232s

  157254 PPushes remaining with PInf 4.2945407e-03               232s
    8071 PPushes remaining with PInf 3.5733316e-01               235s
       0 PPushes remaining with PInf 0.0000000e+00               236s

  Push phase complete: Pinf 0.0000000e+00, Dinf 1.0054204e+04    236s

Iteration    Objective       Primal Inf.    Dual Inf.      Time
  363006    1.2593269e+07   0.000000e+00   1.005420e+04    236s
  363322    1.2593269e+07   0.000000e+00   0.000000e+00    238s

Solved with barrier
Solved in 363322 iterations and 237.85 seconds
Optimal objective  1.259326925e+07
